NAME : eilB101.80.1008.tour
COMMENT : Length = 1008
COMMENT : Found by LKH [Keld Helsgaun] Mon Dec 10 23:17:00 2018
TYPE : TOUR
DIMENSION : 111
TOUR_SECTION
1
95
93
60
94
100
97
7
104
70
2
52
82
10
72
67
66
36
21
31
71
111
53
83
49
9
84
19
90
110
59
3
58
42
23
75
73
74
22
41
103
29
77
78
4
69
13
105
85
18
87
45
39
15
43
44
16
107
5
40
68
24
57
76
26
56
81
106
14
88
98
38
99
92
17
62
86
101
96
109
54
27
55
25
30
35
79
80
34
51
102
28
32
89
63
64
33
91
11
108
8
20
12
65
50
37
48
47
46
6
61
-1
EOF
